n = 17;
lu = [|108, 235
      |154, 234
      |-139, 79
      |215, 234
      |-191, 42
      |-51, 286
      |-230, -105
      |-29, 261
      |-169, -106
      |-95, 237
      |-42, 74
      |-5, 177
      |-242, 42
      |-269, -235
      |-179, 112
      |-125, 110
      |-221, -195|];
